(set-logic HORN)

(declare-datatypes ((node 0)) (((node  (data Int) (next Int)))))
(declare-datatypes ((HeapObject 0)) (((O_Int  (getInt Int)) (O_UInt  (getUInt Int)) (O_Addr  (getAddr Int)) (O_node  (getnode node)) (defObj ))))
(declare-datatypes ((Heap 0)) (((HeapCtor  (HeapSize Int) (HeapContents (Array Int HeapObject))))))

(declare-fun |inv_main61| ( Heap Int Int Int Int Int Int Int Int ) Bool)
(declare-fun |inv_main4| ( Heap Int Int ) Bool)
(declare-fun |inv_main25| ( Heap Int Int Int Int Int Int ) Bool)
(declare-fun |inv_main54| ( Heap Int Int Int Int Int Int Int Int Int Int Int ) Bool)
(declare-fun |inv_main23| ( Heap Int Int Int Int Int Int Int ) Bool)
(declare-fun |inv_main71| ( Heap Int Int Int Int Int Int Int ) Bool)
(declare-fun |inv_main73| ( Heap Int Int Int Int Int Int Int ) Bool)
(declare-fun |inv_main44| ( Heap Int Int Int Int Int Int Int Int Int Int ) Bool)
(declare-fun |CHC_COMP_FALSE| ( ) Bool)
(declare-fun |inv_main74| ( Heap Int Int Int Int Int Int Int Int ) Bool)
(declare-fun |inv_main48| ( Heap Int Int Int Int Int Int Int Int Int Int Int ) Bool)
(declare-fun |inv_main60| ( Heap Int Int Int Int Int Int Int ) Bool)
(declare-fun |inv_main55| ( Heap Int Int Int Int Int Int Int Int Int Int Int ) Bool)
(declare-fun |inv_main89| ( Heap Int Int Int Int Int Int Int ) Bool)
(declare-fun |inv_main66| ( Heap Int Int Int Int Int Int Int ) Bool)
(declare-fun |inv_main10| ( Heap Int Int Int Int Int ) Bool)
(declare-fun |inv_main51| ( Heap Int Int Int Int Int Int Int Int Int Int Int ) Bool)
(declare-fun |inv_main38| ( Heap Int Int Int Int Int Int Int Int Int Int ) Bool)
(declare-fun |inv_main17| ( Heap Int Int Int Int Int Int Int ) Bool)
(declare-fun |inv_main86| ( Heap Int Int Int Int Int Int Int Int ) Bool)
(declare-fun |inv_main59| ( Heap Int Int Int Int Int Int Int ) Bool)

(assert
  (forall ( (A Heap) (v_1 Int) (v_2 Int) ) 
    (=>
      (and
        (and (= A (HeapCtor 0 ((as const (Array Int HeapObject)) defObj)))
     (= 2 v_1)
     (= 1 v_2))
      )
      (inv_main4 A v_1 v_2)
    )
  )
)
(assert
  (forall ( (A Int) (B Int) (C Int) (D Int) (E Int) (F Int) (G Int) (H Int) (I Int) (J Int) (K Int) (L Heap) ) 
    (=>
      (and
        (inv_main48 L K J I H G F E D C B A)
        (and (not (<= 1 D)) (not (= B 0)))
      )
      (inv_main55 L K J I H G F E D C B A)
    )
  )
)
(assert
  (forall ( (A Int) (B Int) (C Int) (D Int) (E Int) (F Int) (G Int) (H Int) (I Int) (J Int) (K Int) (L Heap) (v_12 Int) ) 
    (=>
      (and
        (inv_main48 L K J I H G F E D C B A)
        (and (<= 1 D) (= v_12 A))
      )
      (inv_main51 L K J I H G F E D C A v_12)
    )
  )
)
(assert
  (forall ( (A Int) (B Int) (C Int) (D Int) (E Int) (F Int) (G Int) (H Heap) (I Int) (J Int) (K Int) (L Int) (M Int) (N Int) (O Int) (P Heap) ) 
    (=>
      (and
        (inv_main23 P O N M L K J I)
        (let ((a!1 (ite (and (not (<= I 0)) (>= (HeapSize P) I))
                (select (HeapContents P) I)
                defObj)))
(let ((a!2 (O_node (node J (next (getnode a!1))))))
(let ((a!3 (ite (and (not (<= I 0)) (>= (HeapSize P) I))
                (HeapCtor (HeapSize P) (store (HeapContents P) I a!2))
                P)))
  (and (= C K)
       (= B J)
       (= A I)
       (= G O)
       (= F N)
       (= E M)
       (= H a!3)
       ((_ is O_node) a!1)
       (= D L)))))
      )
      (inv_main25 H G F E D C A)
    )
  )
)
(assert
  (forall ( (A Heap) (B Int) (C Int) (D Int) (E Int) (F Int) (G Int) (H Int) (I Int) (J Int) (K Int) (L Int) (M Heap) ) 
    (=>
      (and
        (inv_main55 M L K J I H G F E D C B)
        (let ((a!1 (ite (and (not (<= C 0)) (>= (HeapSize M) C))
                (select (HeapContents M) C)
                defObj)))
(let ((a!2 (O_node (node (data (getnode a!1)) D))))
(let ((a!3 (ite (and (not (<= C 0)) (>= (HeapSize M) C))
                (HeapCtor (HeapSize M) (store (HeapContents M) C a!2))
                M)))
  (and ((_ is O_node) a!1) (= A a!3)))))
      )
      (inv_main54 A L K J I H G F E D C B)
    )
  )
)
(assert
  (forall ( (A Int) (B Int) (C Int) (D Int) (E Int) (F Int) (G Int) (H Int) (I Int) (J Int) (K Int) (L Heap) (v_12 Int) ) 
    (=>
      (and
        (inv_main48 L K J I H G F E D C B A)
        (and (not (<= 1 D)) (= B 0) (= v_12 C))
      )
      (inv_main54 L K J C H G F E D v_12 B A)
    )
  )
)
(assert
  (forall ( (A Int) (B Int) (C Int) (D Int) (E Int) (F Int) (G Int) (H Heap) ) 
    (=>
      (and
        (inv_main71 H G F E D C B A)
        (not (= B 0))
      )
      (inv_main73 H G F E D C B A)
    )
  )
)
(assert
  (forall ( (A Int) (B Int) (C Int) (D Int) (E Int) (F Int) (G Int) (H Heap) (I Int) (J Int) (K Int) (L Int) (M Int) (N Int) (O Heap) ) 
    (=>
      (and
        (inv_main25 O N M L K J I)
        (let ((a!1 (ite (and (not (<= I 0)) (>= (HeapSize O) I))
                (select (HeapContents O) I)
                defObj)))
(let ((a!2 (O_node (node (data (getnode a!1)) J))))
(let ((a!3 (ite (and (not (<= I 0)) (>= (HeapSize O) I))
                (HeapCtor (HeapSize O) (store (HeapContents O) I a!2))
                O)))
  (and (= B I)
       (= A (+ (- 1) E))
       (= G N)
       (= F M)
       (= E L)
       (= D K)
       (= H a!3)
       ((_ is O_node) a!1)
       (= C J)))))
      )
      (inv_main10 H G F A D B)
    )
  )
)
(assert
  (forall ( (A Int) (B Int) (C Int) (D Int) (E Int) (F Heap) (G Int) (H Int) (I Heap) ) 
    (=>
      (and
        (inv_main4 I H G)
        (and (= D G) (= C H) (= B G) (= A 0) (= F I) (= E H))
      )
      (inv_main10 F E D C B A)
    )
  )
)
(assert
  (forall ( (A Heap) (B Int) (C Int) (D Int) (E Int) (F Int) (G Int) (H Int) (I Heap) ) 
    (=>
      (and
        (inv_main17 I H G F E D C B)
        (let ((a!1 (ite (and (not (<= B 0)) (>= (HeapSize I) B))
                (select (HeapContents I) B)
                defObj)))
(let ((a!2 (O_node (node (data (getnode a!1)) 0))))
(let ((a!3 (ite (and (not (<= B 0)) (>= (HeapSize I) B))
                (HeapCtor (HeapSize I) (store (HeapContents I) B a!2))
                I)))
  (and ((_ is O_node) a!1) (= A a!3)))))
      )
      (inv_main23 A H G F E D C B)
    )
  )
)
(assert
  (forall ( (A Int) (B Int) (C Int) (D Int) (E Int) (F Int) (G Int) (H Int) (I Int) (J Int) (K Int) (L Int) (M Int) (N Int) (O node) (P Heap) (Q Heap) (R Int) (S Int) (T Int) (U Int) (V Int) (W Int) (X Heap) (Y Int) ) 
    (=>
      (and
        (inv_main10 X W V U T S)
        (let ((a!1 (HeapCtor (+ 1 (HeapSize P))
                     (store (HeapContents P) (+ 1 (HeapSize P)) (O_node O))))
      (a!2 (not (<= 1 (+ W (* (- 2) Y)))))
      (a!3 (not (<= 1 (+ (* (- 1) W) (* 2 Y))))))
  (and (= I S)
       (= H G)
       (= G 5)
       (= F E)
       (= E Y)
       (= D 3)
       (= C G)
       (= B E)
       (= A G)
       (= M W)
       (= L K)
       (= K V)
       (= J I)
       (= R (+ 1 (HeapSize P)))
       (= N M)
       (= P X)
       (= Q a!1)
       (not (<= 1 U))
       (<= (- 1) (+ (* (- 1) W) (* 2 Y)))
       (<= (- 1) (+ W (* (- 2) Y)))
       (or a!2 (<= 1 W))
       (or a!3 (<= W (- 1)))
       (not (= 0 R))))
      )
      (inv_main38 Q N L J H F D C B A R)
    )
  )
)
(assert
  (forall ( (A Int) (B Int) (C Int) (D Int) (E Int) (F Int) (G Int) (H Heap) ) 
    (=>
      (and
        (inv_main59 H G F E D C B A)
        (let ((a!1 (ite (and (not (<= B 0)) (>= (HeapSize H) B))
                (select (HeapContents H) B)
                defObj)))
  (and ((_ is O_node) a!1) (= D (data (getnode a!1)))))
      )
      (inv_main66 H G F E D C B A)
    )
  )
)
(assert
  (forall ( (A Int) (B Int) (C Int) (D Int) (E Int) (F Int) (G Int) (H Int) (I Heap) ) 
    (=>
      (and
        (inv_main61 I H G F E D C B A)
        (let ((a!1 (ite (and (not (<= C 0)) (>= (HeapSize I) C))
                (select (HeapContents I) C)
                defObj)))
(let ((a!2 (not (= G (data (getnode a!1))))))
  (and ((_ is O_node) a!1) a!2)))
      )
      (inv_main89 I H G F E D C B)
    )
  )
)
(assert
  (forall ( (A Int) (B Int) (C Int) (D Int) (E Int) (F Int) (G Int) (H Int) (I Heap) ) 
    (=>
      (and
        (inv_main74 I H G F E D C B A)
        (let ((a!1 (ite (and (not (<= C 0)) (>= (HeapSize I) C))
                (select (HeapContents I) C)
                defObj)))
(let ((a!2 (not (= G (data (getnode a!1))))))
  (and ((_ is O_node) a!1) a!2)))
      )
      (inv_main89 I H G F E D C B)
    )
  )
)
(assert
  (forall ( (A Int) (B Int) (C Int) (D Int) (E Int) (F Int) (G Int) (H Heap) ) 
    (=>
      (and
        (inv_main59 H G F E D C B A)
        (let ((a!1 (ite (and (not (<= B 0)) (>= (HeapSize H) B))
                (select (HeapContents H) B)
                defObj)))
(let ((a!2 (not (= D (data (getnode a!1))))))
  (and ((_ is O_node) a!1) a!2)))
      )
      (inv_main89 H G F E D C B A)
    )
  )
)
(assert
  (forall ( (A Int) (B Int) (C Int) (D Int) (E Int) (F Int) (G Int) (H Heap) ) 
    (=>
      (and
        (inv_main71 H G F E D C B A)
        (and (not (= A (+ 1 G))) (= B 0))
      )
      (inv_main89 H G F E D C B A)
    )
  )
)
(assert
  (forall ( (A Int) (B Int) (C Int) (D Int) (E Int) (F Int) (G Int) (H Int) (I Int) (J Heap) ) 
    (=>
      (and
        (inv_main61 J I H G F E D C B)
        (let ((a!1 (ite (and (not (<= D 0)) (>= (HeapSize J) D))
                (select (HeapContents J) D)
                defObj)))
  (and (not (= C (+ (- 1) E)))
       (not (= B 0))
       (= A (+ 1 C))
       ((_ is O_node) a!1)
       (= H (data (getnode a!1)))))
      )
      (inv_main60 J I H G F E B A)
    )
  )
)
(assert
  (forall ( (A Int) (B Int) (C Int) (D Int) (E Int) (F Int) (G Heap) (H Int) (I Int) (J Int) (K Int) (L Int) (M Int) (N Int) (O Int) (P Int) (Q Int) (R Int) (S Int) (T Int) (U Heap) (v_21 Int) (v_22 Int) ) 
    (=>
      (and
        (inv_main54 U T S R Q P O N M L K J)
        (let ((a!1 (ite (and (not (<= L 0)) (>= (HeapSize U) L))
                (select (HeapContents U) L)
                defObj)))
(let ((a!2 (O_node (node (data (getnode a!1)) J))))
(let ((a!3 (ite (and (not (<= L 0)) (>= (HeapSize U) L))
                (HeapCtor (HeapSize U) (store (HeapContents U) L a!2))
                U)))
  (and (= E S)
       (= D Q)
       (= C O)
       (= B N)
       (= A M)
       (not (= I 0))
       (= I R)
       (= H P)
       (= F T)
       (= G a!3)
       ((_ is O_node) a!1)
       (not (= 0 H))
       (= v_21 I)
       (= 0 v_22)))))
      )
      (inv_main60 G F E I D H v_21 v_22)
    )
  )
)
(assert
  (forall ( (A Int) (B Int) (C Int) (D Int) (E Int) (F Int) (G Int) (H Int) (I Heap) ) 
    (=>
      (and
        (inv_main73 I H G F E D C B)
        (let ((a!1 (ite (and (not (<= C 0)) (>= (HeapSize I) C))
                (select (HeapContents I) C)
                defObj)))
  (and ((_ is O_node) a!1) (= A (next (getnode a!1)))))
      )
      (inv_main74 I H G F E D C B A)
    )
  )
)
(assert
  (forall ( (A Int) (B Int) (C Int) (D Int) (E Int) (F Int) (G Int) (H Int) (I Int) (J Heap) ) 
    (=>
      (and
        (inv_main61 J I H G F E D C B)
        (let ((a!1 (ite (and (not (<= D 0)) (>= (HeapSize J) D))
                (select (HeapContents J) D)
                defObj)))
  (and (= A (+ 1 C))
       ((_ is O_node) a!1)
       (or (= B 0) (= C (+ (- 1) E)))
       (= H (data (getnode a!1)))))
      )
      (inv_main59 J I H G F E B A)
    )
  )
)
(assert
  (forall ( (A Int) (B Int) (C Int) (D Int) (E Int) (F Int) (G Heap) (H Int) (I Int) (J Int) (K Int) (L Int) (M Int) (N Int) (O Int) (P Int) (Q Int) (R Int) (S Int) (T Int) (U Heap) (v_21 Int) (v_22 Int) ) 
    (=>
      (and
        (inv_main54 U T S R Q P O N M L K J)
        (let ((a!1 (ite (and (not (<= L 0)) (>= (HeapSize U) L))
                (select (HeapContents U) L)
                defObj)))
(let ((a!2 (O_node (node (data (getnode a!1)) J))))
(let ((a!3 (ite (and (not (<= L 0)) (>= (HeapSize U) L))
                (HeapCtor (HeapSize U) (store (HeapContents U) L a!2))
                U)))
  (and (= D Q)
       (= C O)
       (= B N)
       (= A M)
       (= I R)
       (= H P)
       (= F T)
       (= G a!3)
       ((_ is O_node) a!1)
       (or (= I 0) (= 0 H))
       (= E S)
       (= v_21 I)
       (= 0 v_22)))))
      )
      (inv_main59 G F E I D H v_21 v_22)
    )
  )
)
(assert
  (forall ( (A Heap) (B Int) (C Int) (D Int) (E Int) (F Int) (G Int) (H Int) (I Int) (J Int) (K Int) (L Heap) ) 
    (=>
      (and
        (inv_main38 L K J I H G F E D C B)
        (let ((a!1 (ite (and (not (<= B 0)) (>= (HeapSize L) B))
                (select (HeapContents L) B)
                defObj)))
(let ((a!2 (O_node (node (data (getnode a!1)) 0))))
(let ((a!3 (ite (and (not (<= B 0)) (>= (HeapSize L) B))
                (HeapCtor (HeapSize L) (store (HeapContents L) B a!2))
                L)))
  (and ((_ is O_node) a!1) (= A a!3)))))
      )
      (inv_main44 A K J I H G F E D C B)
    )
  )
)
(assert
  (forall ( (A Int) (B Int) (C Int) (D Int) (E Int) (F Int) (G Int) (H Int) (I Int) (J Heap) ) 
    (=>
      (and
        (inv_main74 J I H G F E D C B)
        (let ((a!1 (ite (and (not (<= D 0)) (>= (HeapSize J) D))
                (select (HeapContents J) D)
                defObj)))
  (and (= A (+ 1 C)) ((_ is O_node) a!1) (= H (data (getnode a!1)))))
      )
      (inv_main71 J I H G F E B A)
    )
  )
)
(assert
  (forall ( (A Int) (B Int) (C Int) (D Int) (E Int) (F Int) (G Int) (H Int) (I Int) (J Heap) (K Int) (L Int) (M Int) (N Int) (O Int) (P Int) (Q Int) (R Heap) ) 
    (=>
      (and
        (inv_main66 R Q P O N M L K)
        (let ((a!1 (ite (and (not (<= L 0)) (>= (HeapSize R) L))
                (select (HeapContents R) L)
                defObj)))
  (and (= A (+ 1 C))
       (= F N)
       (= E M)
       (= D L)
       (= C K)
       (= I Q)
       (= H P)
       (= G O)
       (= J R)
       ((_ is O_node) a!1)
       (= B (next (getnode a!1)))))
      )
      (inv_main71 J I H G F E B A)
    )
  )
)
(assert
  (forall ( (A Int) (B Int) (C Int) (D Int) (E Int) (F Int) (G Int) (H Int) (I Heap) ) 
    (=>
      (and
        (inv_main60 I H G F E D C B)
        (let ((a!1 (ite (and (not (<= C 0)) (>= (HeapSize I) C))
                (select (HeapContents I) C)
                defObj)))
  (and ((_ is O_node) a!1) (= A (next (getnode a!1)))))
      )
      (inv_main61 I H G F E D C B A)
    )
  )
)
(assert
  (forall ( (A Int) (B Int) (C Int) (D Int) (E Int) (F Int) (G node) (H Heap) (I Int) (J Int) (K Int) (L Int) (M Int) (N Int) (O Heap) ) 
    (=>
      (and
        (inv_main10 O N M L K J)
        (let ((a!1 (HeapCtor (+ 1 (HeapSize O))
                     (store (HeapContents O) (+ 1 (HeapSize O)) (O_node G)))))
  (and (= C K)
       (= B J)
       (= A K)
       (= I (+ 1 (HeapSize O)))
       (= F N)
       (= E M)
       (= D L)
       (= H a!1)
       (<= 1 L)
       (not (= 0 I))))
      )
      (inv_main17 H F E D C B A I)
    )
  )
)
(assert
  (forall ( (A Int) (B Int) (C Int) (D Int) (E Int) (F Int) (G Int) (H Int) (I Int) (J Int) (K Int) (L Int) (M Int) (N Heap) (O Int) (P Int) (Q Int) (R Int) (S Int) (T Int) (U Int) (V Int) (W Int) (X Int) (Y Int) (Z Heap) ) 
    (=>
      (and
        (inv_main51 Z Y X W V U T S R Q P O)
        (let ((a!1 (ite (and (not (<= O 0)) (>= (HeapSize Z) O))
                (select (HeapContents Z) O)
                defObj)))
  (and (= J V)
       (= I U)
       (= H T)
       (= G S)
       (= F R)
       (= E Q)
       (= D P)
       (= C O)
       (= B (next (getnode a!1)))
       (= M Y)
       (= L X)
       (= K W)
       (= N Z)
       ((_ is O_node) a!1)
       (= A (+ (- 1) F))))
      )
      (inv_main48 N M L K J I H G A E D B)
    )
  )
)
(assert
  (forall ( (A Int) (B Int) (C Int) (D Int) (E Int) (F Int) (G Int) (H Int) (I Int) (J Int) (K Int) (L Int) (M Int) (N Int) (O Int) (P Int) (Q Int) (R Int) (S Int) (T Int) (U Heap) (V Heap) (W Int) (X Int) (Y Int) (Z Int) (A1 Int) (B1 Int) (C1 Int) (D1 Int) (E1 Int) (F1 Int) (G1 Heap) (v_33 Int) ) 
    (=>
      (and
        (inv_main44 G1 F1 E1 D1 C1 B1 A1 Z Y X W)
        (let ((a!1 (ite (and (not (<= W 0)) (>= (HeapSize G1) W))
                (select (HeapContents G1) W)
                defObj)))
(let ((a!2 (O_node (node X (next (getnode a!1))))))
(let ((a!3 (ite (and (not (<= W 0)) (>= (HeapSize G1) W))
                (HeapCtor (HeapSize G1) (store (HeapContents G1) W a!2))
                G1)))
  (and (= G Z)
       (= F E)
       (= E Y)
       (= D C)
       (= C W)
       (= B 0)
       (= A X)
       (= Q E1)
       (= P O)
       (= O D1)
       (= N M)
       (= M C1)
       (= L K)
       (= K B1)
       (= J I)
       (= I A1)
       (= T S)
       (= S F1)
       (= R Q)
       (= V U)
       (= U a!3)
       ((_ is O_node) a!1)
       (= H G)
       (= v_33 P)))))
      )
      (inv_main48 V T R P N L J H F D B v_33)
    )
  )
)
(assert
  (forall ( (A Int) (B Int) (C Int) (D Int) (E Int) (F Int) (G Int) (H Int) (I Heap) (J Int) (K Int) (L Int) (M Int) (N Int) (O Int) (P Int) (Q Int) (R Int) (S Heap) (T Int) (U Int) (V Int) (W Int) (X Int) (Y Int) (Z Int) (A1 Int) (B1 Int) (C1 Heap) ) 
    (=>
      (and
        (inv_main86 C1 B1 A1 Z Y X W V U)
        (let ((a!1 (ite (and (not (<= U 0)) (>= (HeapSize C1) U))
                (select (HeapContents C1) U)
                defObj))
      (a!2 (ite (and (not (<= K 0)) (>= (HeapSize S) K))
                (HeapCtor (HeapSize S) (store (HeapContents S) K defObj))
                S)))
  (and (= C M)
       (= B L)
       (= A K)
       (= M W)
       (= L V)
       (= K U)
       (= J (next (getnode a!1)))
       (= H R)
       (= G Q)
       (= F P)
       (= E O)
       (= Q A1)
       (= P Z)
       (= O Y)
       (= N X)
       (not (= T 0))
       (= T J)
       (= R B1)
       (= S C1)
       (= I a!2)
       ((_ is O_node) a!1)
       (= D N)))
      )
      (inv_main86 I H G F E D C B T)
    )
  )
)
(assert
  (forall ( (A Int) (B Int) (C Int) (D Int) (E Int) (F Int) (G Int) (H Heap) (v_8 Int) ) 
    (=>
      (and
        (inv_main71 H G F E D C B A)
        (and (= B 0) (= A (+ 1 G)) (not (= E 0)) (= v_8 E))
      )
      (inv_main86 H G F E D C B A v_8)
    )
  )
)
(assert
  (forall ( (A Int) (B Int) (C Int) (D Int) (E Int) (F Int) (G Int) (H Heap) ) 
    (=>
      (and
        (inv_main17 H G F E D C B A)
        (let ((a!1 (ite (and (not (<= A 0)) (>= (HeapSize H) A))
                (select (HeapContents H) A)
                defObj)))
  (not ((_ is O_node) a!1)))
      )
      CHC_COMP_FALSE
    )
  )
)
(assert
  (forall ( (A Int) (B Int) (C Int) (D Int) (E Int) (F Int) (G Int) (H Heap) ) 
    (=>
      (and
        (inv_main23 H G F E D C B A)
        (let ((a!1 (ite (and (not (<= A 0)) (>= (HeapSize H) A))
                (select (HeapContents H) A)
                defObj)))
  (not ((_ is O_node) a!1)))
      )
      CHC_COMP_FALSE
    )
  )
)
(assert
  (forall ( (A Int) (B Int) (C Int) (D Int) (E Int) (F Int) (G Heap) ) 
    (=>
      (and
        (inv_main25 G F E D C B A)
        (let ((a!1 (ite (and (not (<= A 0)) (>= (HeapSize G) A))
                (select (HeapContents G) A)
                defObj)))
  (not ((_ is O_node) a!1)))
      )
      CHC_COMP_FALSE
    )
  )
)
(assert
  (forall ( (A Int) (B Int) (C Int) (D Int) (E Int) (F Int) (G Int) (H Int) (I Int) (J Int) (K Heap) ) 
    (=>
      (and
        (inv_main38 K J I H G F E D C B A)
        (let ((a!1 (ite (and (not (<= A 0)) (>= (HeapSize K) A))
                (select (HeapContents K) A)
                defObj)))
  (not ((_ is O_node) a!1)))
      )
      CHC_COMP_FALSE
    )
  )
)
(assert
  (forall ( (A Int) (B Int) (C Int) (D Int) (E Int) (F Int) (G Int) (H Int) (I Int) (J Int) (K Heap) ) 
    (=>
      (and
        (inv_main44 K J I H G F E D C B A)
        (let ((a!1 (ite (and (not (<= A 0)) (>= (HeapSize K) A))
                (select (HeapContents K) A)
                defObj)))
  (not ((_ is O_node) a!1)))
      )
      CHC_COMP_FALSE
    )
  )
)
(assert
  (forall ( (A Int) (B Int) (C Int) (D Int) (E Int) (F Int) (G Int) (H Int) (I Int) (J Int) (K Int) (L Heap) ) 
    (=>
      (and
        (inv_main51 L K J I H G F E D C B A)
        (let ((a!1 (ite (and (not (<= A 0)) (>= (HeapSize L) A))
                (select (HeapContents L) A)
                defObj)))
  (not ((_ is O_node) a!1)))
      )
      CHC_COMP_FALSE
    )
  )
)
(assert
  (forall ( (A Int) (B Int) (C Int) (D Int) (E Int) (F Int) (G Int) (H Int) (I Int) (J Int) (K Int) (L Heap) ) 
    (=>
      (and
        (inv_main55 L K J I H G F E D C B A)
        (let ((a!1 (ite (and (not (<= B 0)) (>= (HeapSize L) B))
                (select (HeapContents L) B)
                defObj)))
  (not ((_ is O_node) a!1)))
      )
      CHC_COMP_FALSE
    )
  )
)
(assert
  (forall ( (A Int) (B Int) (C Int) (D Int) (E Int) (F Int) (G Int) (H Int) (I Int) (J Int) (K Int) (L Heap) ) 
    (=>
      (and
        (inv_main54 L K J I H G F E D C B A)
        (let ((a!1 (ite (and (not (<= C 0)) (>= (HeapSize L) C))
                (select (HeapContents L) C)
                defObj)))
  (not ((_ is O_node) a!1)))
      )
      CHC_COMP_FALSE
    )
  )
)
(assert
  (forall ( (A Int) (B Int) (C Int) (D Int) (E Int) (F Int) (G Int) (H Heap) ) 
    (=>
      (and
        (inv_main60 H G F E D C B A)
        (let ((a!1 (ite (and (not (<= B 0)) (>= (HeapSize H) B))
                (select (HeapContents H) B)
                defObj)))
  (not ((_ is O_node) a!1)))
      )
      CHC_COMP_FALSE
    )
  )
)
(assert
  (forall ( (A Int) (B Int) (C Int) (D Int) (E Int) (F Int) (G Int) (H Int) (I Heap) ) 
    (=>
      (and
        (inv_main61 I H G F E D C B A)
        (let ((a!1 (ite (and (not (<= C 0)) (>= (HeapSize I) C))
                (select (HeapContents I) C)
                defObj)))
  (not ((_ is O_node) a!1)))
      )
      CHC_COMP_FALSE
    )
  )
)
(assert
  (forall ( (A Int) (B Int) (C Int) (D Int) (E Int) (F Int) (G Int) (H Heap) ) 
    (=>
      (and
        (inv_main59 H G F E D C B A)
        (let ((a!1 (ite (and (not (<= B 0)) (>= (HeapSize H) B))
                (select (HeapContents H) B)
                defObj)))
  (not ((_ is O_node) a!1)))
      )
      CHC_COMP_FALSE
    )
  )
)
(assert
  (forall ( (A Int) (B Int) (C Int) (D Int) (E Int) (F Int) (G Int) (H Heap) ) 
    (=>
      (and
        (inv_main66 H G F E D C B A)
        (let ((a!1 (ite (and (not (<= B 0)) (>= (HeapSize H) B))
                (select (HeapContents H) B)
                defObj)))
  (not ((_ is O_node) a!1)))
      )
      CHC_COMP_FALSE
    )
  )
)
(assert
  (forall ( (A Int) (B Int) (C Int) (D Int) (E Int) (F Int) (G Int) (H Heap) ) 
    (=>
      (and
        (inv_main73 H G F E D C B A)
        (let ((a!1 (ite (and (not (<= B 0)) (>= (HeapSize H) B))
                (select (HeapContents H) B)
                defObj)))
  (not ((_ is O_node) a!1)))
      )
      CHC_COMP_FALSE
    )
  )
)
(assert
  (forall ( (A Int) (B Int) (C Int) (D Int) (E Int) (F Int) (G Int) (H Int) (I Heap) ) 
    (=>
      (and
        (inv_main74 I H G F E D C B A)
        (let ((a!1 (ite (and (not (<= C 0)) (>= (HeapSize I) C))
                (select (HeapContents I) C)
                defObj)))
  (not ((_ is O_node) a!1)))
      )
      CHC_COMP_FALSE
    )
  )
)
(assert
  (forall ( (A Int) (B Int) (C Int) (D Int) (E Int) (F Int) (G Int) (H Int) (I Heap) ) 
    (=>
      (and
        (inv_main86 I H G F E D C B A)
        (let ((a!1 (ite (and (not (<= A 0)) (>= (HeapSize I) A))
                (select (HeapContents I) A)
                defObj)))
  (not ((_ is O_node) a!1)))
      )
      CHC_COMP_FALSE
    )
  )
)
(assert
  (forall ( (A Int) (B Int) (C Int) (D Int) (E Int) (F Int) (G Int) (H Heap) ) 
    (=>
      (and
        (inv_main89 H G F E D C B A)
        true
      )
      CHC_COMP_FALSE
    )
  )
)
(assert
  (forall ( (CHC_COMP_UNUSED Bool) ) 
    (=>
      (and
        CHC_COMP_FALSE
      )
      false
    )
  )
)

(check-sat)
(exit)
